 &control
  calculation = 'scf'
  title = 'Cu_fcc'
  restart_mode = 'from_scratch'
  tstress = .true.
  tprnfor = .true.
  outdir = './raw'
  prefix = 'Cu'
  pseudo_dir = '../pseudo'
 /

 &system
  ibrav = 2
  celldm(1) = 6.8219
  nat = 1
  ntyp = 1
  ecutwfc = 16
  ecutrho = 128
  occupations = 'smearing'
  degauss = 7.d-6
 /

 &electrons
  conv_thr = 1.d-12
  diagonalization = 'david'
 /

 &srb
  use_srb = .false.
 /

 ATOMIC_SPECIES
  Cu 63.546  Cu.pbe-d-rrkjus.UPF

 ATOMIC_POSITIONS crystal
  Cu    0.0000000  0.0000000  0.0000000

 K_POINTS automatic
  16 16 16 1 1 1

@run

 &control
  calculation = 'nscf'
 /

 &system
  nosym = .true.
 /

  K_POINTS tpiba
  15
  0.0  0.0  0.0  1.0
  0.5  0.0  0.0  1.0
  1.0  0.0  0.0  1.0
  1.0  0.25 0.0  1.0
  1.0  0.5  0.0  1.0
  0.75 0.5  0.25 1.0
  0.5  0.5  0.5  1.0
  0.25 0.25 0.25 1.0
  0.0  0.0  0.0  1.0
  0.5  0.5  0.0  1.0
  1.0  1.0  0.0  1.0
  0.875 0.875 0.0 1.0
  0.75 0.75 0.0  1.0
  0.625 0.625 0.25  1.0
  0.5 0.5 0.5 1.0

@run

