 &control
  calculation = 'scf'
  title = 'Gold_fcc'
  restart_mode = 'from_scratch'
  tstress = .true.
  tprnfor = .true.
  outdir = './raw'
  prefix = 'Au'
  pseudo_dir = '../pseudo'
  verbosity = 'high'
 /

 &system
  ibrav = 2
  celldm(1) = 7.710
  nat = 1
  ntyp = 1
  ecutwfc = 32
  ecutrho = 256
  occupations = 'smearing'
  degauss = 7.d-6
 /

 &electrons
  conv_thr = 1.d-12
  diagonalization = 'david'
 /

 &srb
  use_srb = .true.
 /

 ATOMIC_SPECIES
  Au  196.966  Au.pbe-van_ak.UPF

 ATOMIC_POSITIONS crystal
  Au    0.0000000  0.0000000  0.0000000

 K_POINTS crystal
  7
  0.0 0.0 0.0 1.0
  0.5 0.0 0.0 1.0
  0.0 0.5 0.0 1.0
  0.0 0.0 0.5 1.0
  0.0 0.5 0.5 1.0
  0.5 0.0 0.5 1.0
  0.5 0.5 0.0 1.0

 Q_POINTS automatic
  16 16 16 1 1 1

@run

 &control
  calculation = 'nscf'
 /

 &system
  nosym = .true.
 /

  Q_POINTS tpiba
  15
  0.0  0.0  0.0  1.0
  0.5  0.0  0.0  1.0
  1.0  0.0  0.0  1.0
  1.0  0.25 0.0  1.0
  1.0  0.5  0.0  1.0
  0.75 0.5  0.25 1.0
  0.5  0.5  0.5  1.0
  0.25 0.25 0.25 1.0
  0.0  0.0  0.0  1.0
  0.5  0.5  0.0  1.0
  1.0  1.0  0.0  1.0
  0.875 0.875 0.0 1.0
  0.75 0.75 0.0  1.0
  0.625 0.625 0.25  1.0
  0.5 0.5 0.5 1.0

@run

