 &control
  calculation = 'scf'
  title = 'Cu_fcc'
  restart_mode = 'from_scratch'
  tstress = .true.
  tprnfor = .true.
  outdir = './raw'
  prefix = 'Cu'
  pseudo_dir = '../pseudo'
 /

 &system
  ibrav = 2
  celldm(1) = 6.942
  nat = 1
  ntyp = 1
  ecutwfc = 48
  ecutrho = 384
  occupations = 'smearing'
  degauss = 7.d-6
 /

 &electrons
  conv_thr = 1.d-12
  diagonalization = 'david'
 /

 &srb
  use_srb = .true.
  trace_tol = 1.d-5
  basis_life = 3
 /

 ATOMIC_SPECIES
  Cu 63.546  Cu.pbe-d-rrkjus.UPF

 ATOMIC_POSITIONS crystal
  Cu    0.0000000  0.0000000  0.0000000

 K_POINTS crystal
  13
  0.0 0.0 0.0 1.0
  0.25 0.0 0.0 1.0
  0.5 0.0 0.0 1.0
  0.75 0.0 0.0 1.0
  0.0 0.25 0.0 1.0
  0.0 0.5 0.0 1.0
  0.0 0.75 0.0 1.0
  0.0 0.0 0.25 1.0
  0.0 0.0 0.5 1.0
  0.0 0.0 0.75 1.0
  0.0 0.5 0.5 1.0
  0.5 0.0 0.5 1.0
  0.5 0.5 0.0 1.0

 Q_POINTS automatic
  16 16 16 1 1 1

@run

 &control
  calculation = 'nscf'
 /

 &system
  nosym = .true.
 /

 Q_POINTS crystal_b
  12
  0.0 0.0 0.0 32
  0.5 0.0 0.5 16
  0.5 0.25 0.75 8
  0.375 0.375 0.75 42
  0.0 0.0 0.0 39
  0.5 0.5 0.5 14
  0.625 0.25 0.625 8
  0.5 0.25 0.75 16
  0.5 0.5 0.5 14
  0.375 0.375 0.75 0
  0.625 0.25 0.625 8
  0.5 0.0 0.5 14

@run

